
&control
calculation='scf'
restart_mode='from_scratch'
prefix='ca'
outdir='out_ca'
pseudo_dir='./'
/

&SYSTEM
  ibrav = 0
  !A =    4.91400
  nat = 12
  ntyp = 2
  occupations='fixed'
  ecutwfc=50
  ecutrho=600
  input_dft='pbe'
/
&electrons
/
K_POINTS {automatic}
2 2 2 1 1 1
CELL_PARAMETERS {angstrom}
  4.971700000000000   0.000000000000000   0.000000000000000 
  0.000000000000000   4.971700000000000   0.000000000000000 
  0.000000000000000   0.000000000000000   6.922300000000000 
ATOMIC_SPECIES
  Si   28.08500  Si.pbe-n-kjpaw_psl.1.0.0.UPF
   O   15.99900   O.pbe-n-kjpaw_psl.1.0.0.UPF
ATOMIC_POSITIONS {crystal}
Si   0.300280000000000   0.300280000000000   0.000000000000000 
Si   0.699720000000000   0.699720000000000   0.500000000000000 
Si   0.199720000000000   0.800280000000000   0.250000000000000 
Si   0.800280000000000   0.199720000000000   0.750000000000000 
 O   0.239200000000000   0.104400000000000   0.178700000000000 
 O   0.760800000000000   0.895600000000000   0.678700000000000 
 O   0.895600000000000   0.760800000000000   0.321300000000000 
 O   0.260800000000000   0.604400000000000   0.071300000000000 
 O   0.739200000000000   0.395600000000000   0.571300000000000 
 O   0.104400000000000   0.239200000000000   0.821300000000000 
 O   0.395600000000000   0.739200000000000   0.428700000000000 
 O   0.604400000000000   0.260800000000000   0.928700000000000 

