&control
calculation='scf'
restart_mode='from_scratch'
prefix='cb'
outdir='out_cb'
pseudo_dir='./'
/

&SYSTEM
  ibrav = 0
  !A =    5.01300
  nat = 6
  ntyp = 2
  occupations='fixed'
  ecutwfc=50
  ecutrho=600
  input_dft='pw91'
/
&electrons
/
K_POINTS {automatic}
2 2 2 1 1 1
CELL_PARAMETERS {angstrom}
  3.560000000000000   3.560000000000000   0.000000000000000 
  3.560000000000000   0.000000000000000   3.560000000000000 
  0.000000000000000   3.560000000000000   3.560000000000000 
ATOMIC_SPECIES
  Si   28.08500  Si.pbe-n-kjpaw_psl.1.0.0.UPF
   O   15.99900   O.pbe-n-kjpaw_psl.1.0.0.UPF
ATOMIC_POSITIONS {crystal}
Si   0.000000000000000   0.000000000000000   0.000000000000000 
Si   0.250000000000000   0.250000000000000   0.250000000000000 
 O   0.125000000000000   0.125000000000000   0.125000000000000 
 O   0.125000000000000   0.125000000000000   0.625000000000000 
 O   0.625000000000000   0.125000000000000   0.125000000000000 
 O   0.125000000000000   0.625000000000000   0.125000000000000 
