&dos
outdir = './out_qa',
prefix='qa',
fildos='qa.dos',
/
