&projwfc
outdir = './out_qa',
prefix='qa',
degauss = 0.01
/
