&bands
outdir = './out_qa',
prefix='qa',
filband='qa.band',
lsym=.true.
/
