#************************************************************************************
#*                  Generated by cif2cell 1.2.10 2019-07-10 11:11                   *
#*  T. Bjorkman, Comp. Phys. Commun. 182, 1183-1186 (2011). Please cite generously. *
#*                                                                                  *
#*                                         ()                                       *
#*             Failed to get author information, No journal information             *
#************************************************************************************

&control
calculation='scf'
restart_mode='from_scratch'
prefix='qa'
outdir='out_qa'
pseudo_dir='./'
/

&SYSTEM
  ibrav = 0
  !A =    4.91400
  nat = 9
  ntyp = 2
  occupations='fixed'
  ecutwfc=70
  ecutrho=840
/
&electrons
/


K_POINTS {automatic}
2 2 2 1 1 1
CELL_PARAMETERS {angstrom}
  4.255648834196731  -2.457000000000000   0.000000000000000 
  0.000000000000000   4.914000000000000   0.000000000000000 
  0.000000000000000   0.000000000000000   5.406000000000000 
ATOMIC_SPECIES
  Si   28.08500  Si.pbe-n-kjpaw_psl.1.0.0.UPF
   O   15.99900   O.pbe-n-kjpaw_psl.1.0.0.UPF
ATOMIC_POSITIONS {crystal}
Si   0.469900000000000   0.000000000000000   0.333333333333333 
Si   0.530100000000000   0.530100000000000   0.000000000000000 
Si   0.000000000000000   0.469900000000000   0.666666666666667 
 O   0.413000000000000   0.266800000000000   0.214000000000000 
 O   0.587000000000000   0.853800000000000   0.119333333333333 
 O   0.146200000000000   0.733200000000000   0.452666666666667 
 O   0.733200000000000   0.146200000000000   0.547333333333333 
 O   0.853800000000000   0.587000000000000   0.880666666666667 
 O   0.266800000000000   0.413000000000000   0.786000000000000 
